(set-info :smt-lib-version 2.6)
(set-logic QF_UFLRA)
(set-info :source |
MathSat group

|)
(set-info :category "random")
(set-info :status sat)
(declare-fun x0 () Real)
(declare-fun x1 () Real)
(declare-fun x2 () Real)
(declare-fun x3 () Real)
(declare-fun x4 () Real)
(declare-fun x5 () Real)
(declare-fun x6 () Real)
(declare-fun x7 () Real)
(declare-fun x8 () Real)
(declare-fun x9 () Real)
(declare-fun x10 () Real)
(declare-fun x11 () Real)
(declare-fun x12 () Real)
(declare-fun x13 () Real)
(declare-fun x14 () Real)
(declare-fun x15 () Real)
(declare-fun x16 () Real)
(declare-fun x17 () Real)
(declare-fun x18 () Real)
(declare-fun x19 () Real)
(declare-fun x20 () Real)
(declare-fun x21 () Real)
(declare-fun x22 () Real)
(declare-fun x23 () Real)
(declare-fun x24 () Real)
(declare-fun x25 () Real)
(declare-fun x26 () Real)
(declare-fun x27 () Real)
(declare-fun x28 () Real)
(declare-fun x29 () Real)
(declare-fun f0_1 (Real) Real)
(declare-fun f0_2 (Real Real) Real)
(declare-fun f0_3 (Real Real Real) Real)
(declare-fun f0_4 (Real Real Real Real) Real)
(declare-fun P0 () Bool)
(declare-fun P1 () Bool)
(declare-fun P2 () Bool)
(declare-fun P3 () Bool)
(declare-fun P4 () Bool)
(declare-fun P5 () Bool)
(declare-fun P6 () Bool)
(declare-fun P7 () Bool)
(declare-fun P8 () Bool)
(declare-fun P9 () Bool)
(declare-fun P10 () Bool)
(declare-fun P11 () Bool)
(declare-fun P12 () Bool)
(declare-fun P13 () Bool)
(declare-fun P14 () Bool)
(declare-fun P15 () Bool)
(declare-fun P16 () Bool)
(declare-fun P17 () Bool)
(declare-fun P18 () Bool)
(declare-fun P19 () Bool)
(declare-fun P20 () Bool)
(declare-fun P21 () Bool)
(declare-fun P22 () Bool)
(declare-fun P23 () Bool)
(declare-fun P24 () Bool)
(declare-fun P25 () Bool)
(declare-fun P26 () Bool)
(declare-fun P27 () Bool)
(declare-fun P28 () Bool)
(declare-fun P29 () Bool)
(assert (let ((?v_78 (< (- (+ (* 2 x3) (* 32 x13)) (* 37 x11)) 36)) (?v_12 (* 8 x28)) (?v_8 (< (- (+ (* 28 x26) (* 30 x5)) (* 36 x23)) 15)) (?v_16 (< (+ (- (* 32 x14) (* 26 x18)) (* 38 x8)) 22)) (?v_79 (distinct x20 (f0_2 x2 x18))) (?v_67 (distinct (f0_2 x29 x24) (f0_2 x0 x23))) (?v_134 (= x7 x25)) (?v_54 (f0_1 x0))) (let ((?v_46 (= (f0_1 x22) ?v_54)) (?v_17 (= (f0_2 x3 x21) (f0_2 x26 x17))) (?v_48 (distinct (f0_1 x29) (f0_1 x5))) (?v_13 (= (f0_2 x23 x24) (f0_1 x21))) (?v_21 (distinct x29 (f0_2 x28 x22))) (?v_91 (f0_1 x23))) (let ((?v_111 (= ?v_91 (f0_2 x7 x18))) (?v_57 (distinct (f0_2 x3 x19) x10)) (?v_64 (= x22 x28)) (?v_10 (= (f0_2 x13 x23) (f0_2 x16 x10))) (?v_9 (distinct x0 x24)) (?v_154 (= (f0_1 x17) (f0_2 x10 x7))) (?v_18 (= (f0_2 x4 x22) (f0_1 x10))) (?v_56 (distinct (f0_2 x12 x4) ?v_54)) (?v_3 (distinct (f0_2 x21 x1) (f0_2 x1 x14))) (?v_102 (distinct x2 (f0_1 x1))) (?v_84 (distinct (f0_1 x2) x25)) (?v_87 (= (f0_2 x15 x15) (f0_2 x10 x11))) (?v_6 (distinct (f0_1 x6) ?v_91)) (?v_75 (distinct (f0_2 x6 x3) (f0_2 x14 x9))) (?v_38 (= (f0_2 x29 x13) x12)) (?v_52 (= (f0_2 x23 x26) (f0_2 x8 x2))) (?v_63 (distinct x29 (f0_2 x21 x25))) (?v_22 (distinct x2 (f0_2 x0 x21))) (?v_40 (= (f0_2 x10 x28) (f0_2 x23 x22))) (?v_70 (distinct (f0_1 x14) (f0_1 x26))) (?v_32 (distinct x2 x11)) (?v_1 (= (f0_2 x18 x19) (f0_1 x3))) (?v_0 (not P11))) (let ((?v_85 (not ?v_84)) (?v_41 (not ?v_40)) (?v_81 (not P25)) (?v_26 (not ?v_70)) (?v_130 (not P27)) (?v_83 (not P20)) (?v_2 (not P6)) (?v_4 (not ?v_10)) (?v_49 (not ?v_6)) (?v_113 (not ?v_8)) (?v_7 (not ?v_3)) (?v_30 (not P18)) (?v_33 (not P29)) (?v_108 (not ?v_9)) (?v_114 (not ?v_38)) (?v_58 (not ?v_32)) (?v_69 (not ?v_21)) (?v_14 (not ?v_13)) (?v_59 (not P9)) (?v_23 (not P1)) (?v_36 (not ?v_1)) (?v_68 (not ?v_17)) (?v_39 (not ?v_18)) (?v_60 (not P12)) (?v_137 (not ?v_22)) (?v_73 (not P21)) (?v_35 (not P10)) (?v_101 (not ?v_78)) (?v_131 (not P23)) (?v_147 (not P19)) (?v_50 (not P2)) (?v_122 (not ?v_48)) (?v_53 (not ?v_52)) (?v_97 (not P13)) (?v_121 (not P3)) (?v_104 (not P15)) (?v_146 (not P28)) (?v_74 (not ?v_56)) (?v_151 (not ?v_63)) (?v_132 (not ?v_67)) (?v_119 (not P14)) (?v_80 (not ?v_57)) (?v_82 (not P5)) (?v_115 (not ?v_64)) (?v_90 (not ?v_87)) (?v_92 (not P17)) (?v_118 (not P8)) (?v_127 (not ?v_154)) (?v_133 (not P22)) (?v_100 (not ?v_102)) (?v_105 (not ?v_75)) (?v_135 (not P4)) (?v_129 (not P0)) (?v_158 (not ?v_111)) (?v_140 (not P16)) (?v_120 (not P24)) (?v_142 (not ?v_16)) (?v_138 (not ?v_79)) (?v_145 (not P7)) (?v_139 (not ?v_134)) (?v_143 (not P26)) (?v_148 (not ?v_46))) (let ((?v_152 (or ?v_36 ?v_14)) (?v_159 (or ?v_13 P17)) (?v_11 (< (+ (* 17 x26) (* 6 x25)) 6))) (let ((?v_29 (not ?v_11)) (?v_86 (= (+ (* 27 x1) (* 20 x9) (* 39 x26)) 4))) (let ((?v_95 (not ?v_86)) (?v_37 (= (+ (- (* 38 x24) (* 34 x16)) ?v_12) (- 5)))) (let ((?v_112 (not ?v_37)) (?v_45 (* (- 32) x25))) (let ((?v_25 (< (- (+ ?v_45 (* 7 x23)) (* 15 x10)) (- 11))) (?v_99 (< (+ (- 0 (* 35 x20)) (* 13 x20)) (- 8)))) (let ((?v_5 (not ?v_99)) (?v_15 (<= (- (- (* (- 16) x27) (* 42 x23)) (* 34 x3)) 14)) (?v_19 (<= (- (- (* (- 14) x4) (* 10 x24)) (* 37 x2)) 42)) (?v_61 (<= (+ (- (* 32 x10) (* 17 x25)) (* 36 x19)) (- 26))) (?v_44 (distinct (- (- (* (- 22) x22) (* 26 x4)) (* 3 x2)) (- 37))) (?v_20 (= (+ (- (* 13 x21) (* 9 x9)) (* 18 x25)) (- 21)))) (let ((?v_31 (not ?v_20)) (?v_71 (= (- (- (* (- 35) x8) (* 15 x12)) (* 11 x23)) 13))) (let ((?v_24 (not ?v_71)) (?v_34 (= (- (+ (* (- 38) x5) (* 27 x25)) (* 11 x1)) 2)) (?v_51 (< (- (- (* 33 x12) (* 35 x22)) (* 31 x7)) (- 37))) (?v_55 (< (- (- (* (- 22) x5) (* 13 x27)) ?v_12) 23)) (?v_28 (<= (- (+ (* (- 10) x22) (* 6 x4)) (* 23 x3)) (- 17))) (?v_62 (not ?v_19)) (?v_110 (< (+ (- (* 20 x13) (* 13 x23)) (* 25 x23)) (- 6)))) (let ((?v_107 (not ?v_110)) (?v_109 (= (- (+ (* (- 28) x21) (* 23 x4)) (* 3 x22)) (- 43)))) (let ((?v_98 (not ?v_109)) (?v_27 (<= (- (+ (* 29 x8) (* 10 x28)) (* 8 x20)) (- 36))) (?v_65 (<= (+ (- (* (- 2) x12) (* 19 x20)) (* 36 x5)) (- 36))) (?v_72 (not ?v_25)) (?v_126 (= (+ (* (- 39) x12) (* 13 x17) (* 15 x9)) 37))) (let ((?v_116 (not ?v_126)) (?v_43 (<= (- (+ (* (- 27) x14) (* 8 x9)) (* 38 x12)) (- 12)))) (let ((?v_144 (not ?v_43)) (?v_66 (< (- (- (* (- 22) x20) (* 13 x19)) (* 42 x11)) (- 38)))) (let ((?v_141 (not ?v_66)) (?v_128 (not ?v_34)) (?v_42 (not ?v_15)) (?v_156 (not ?v_27)) (?v_117 (not ?v_44)) (?v_89 (<= (+ ?v_45 (* 27 x17) (* 17 x2)) (- 6)))) (let ((?v_123 (not ?v_89)) (?v_77 (< (- (+ (* (- 39) x27) (* 40 x9)) (* 42 x9)) 22))) (let ((?v_47 (not ?v_77)) (?v_124 (< (- (- (* (- 30) x25) (* 10 x11)) (* 25 x7)) (- 22)))) (let ((?v_88 (not ?v_124)) (?v_153 (not ?v_51)) (?v_125 (not ?v_55)) (?v_103 (= (+ (- (* (- 6) x19) 0) (* 29 x22)) 43))) (let ((?v_136 (not ?v_103)) (?v_96 (not ?v_61))) (let ((?v_106 (or ?v_96 ?v_9)) (?v_93 (not ?v_65)) (?v_76 (not ?v_28)) (?v_149 (or ?v_55 ?v_81)) (?v_94 (distinct (+ (* 6 x7) (* 12 x22) (* 41 x23)) (- 12))) (?v_155 (or ?v_27 ?v_92)) (?v_157 (or ?v_141 ?v_69))) (let ((?v_150 (not ?v_94))) (and (and (and (and (and (and (and (and (and (and (and (and (and (and (and (and (and (and (and (and (and (and (and (and (and (and (and (and (and (and (and (and (and (and (and (and (and (and (and (and (and (and (and (and (and (and (and (and (and (and (and (and (and (and (and (and (and (and (and (and (and (and (and (and (and (and (and (and (and (and (and (and (and (and (and (and (and (and (and (and (and (and (and (and (and (and (and (and (and (and (and (and (and (and (and (and (and (and (and (and (and (and (and (and (and (and (and (and (and (and (and (and (and (and (and (and (and (and (and (and (and (and (and (and (and (and (and (and (and (and (and (and (and (and (and (and (and (and (and (and (and (and (and (and (and (and (and (and (and (and (and (and (and (and (and (and (and (and (and (and (and (and (and (and (and (and (and (and (and (and (and (and (and (and (and (and (and (and (and (and (and (and (and (and (and (and (and (and (and (and (and (and (and (and (and (and (and (and (and (and (and (and (and (and (and (and (and (and (and (and (and (and (and (and (and (and (and (and (and (and (and (and (and (and (and (and (and (and (and (and (and (and (and (and (and (and (and (and (and (and (and (and (and (and (and (and (and (and (and (and (and (and (and (and (and (and (and (and (and (and (and (and (and (and (and (and (and (and (and (and (and (and (and (and (and (and (and (and (and (and (and (and (and (and (and (and (and (and (and (and (and (and (and (and (and (and (and (and (and (and (and (and (and (and (and (and (and (and (and (and (and (and (and (and (and (and (and (and (and (and (and (and (and (and (and (and (and (and (and (and (and (and (and (and (and (and (and (and (and (and (and (and (and (and (and (and (and (and (and (and (and (and (and (and (and (and (and (and (and (or (or ?v_1 ?v_0) ?v_134) (or (or ?v_85 ?v_3) ?v_41)) (or (or ?v_81 ?v_18) ?v_0)) (or (or P22 P28) ?v_26)) (or (or ?v_9 ?v_13) P20)) (or (or ?v_112 ?v_25) ?v_130)) (or (or ?v_5 ?v_83) ?v_2)) (or (or P12 ?v_4) ?v_46)) (or (or P28 ?v_1) P18)) (or (or P9 ?v_2) P16)) (or (or ?v_49 ?v_113) ?v_7)) (or (or ?v_17 ?v_4) ?v_5)) (or (or ?v_15 ?v_19) ?v_67)) (or (or ?v_30 ?v_6) ?v_57)) (or (or ?v_7 ?v_8) ?v_11)) (or (or P6 ?v_4) ?v_61)) (or (or P27 ?v_44) ?v_31)) (or (or ?v_33 ?v_24) ?v_7)) (or (or ?v_108 ?v_64) P18)) (or (or ?v_22 ?v_34) P23)) (or (or ?v_114 ?v_9) ?v_10)) (or (or ?v_58 ?v_51) P24)) (or (or ?v_29 ?v_6) ?v_69)) (or (or ?v_55 ?v_14) ?v_59)) (or (or ?v_14 ?v_16) ?v_23)) (or (or ?v_15 P9) P8)) (or (or P22 ?v_36) ?v_28)) (or (or ?v_16 P19) ?v_68)) (or (or P8 ?v_75) ?v_39)) (or (or P14 ?v_0) ?v_62)) (or (or ?v_107 ?v_98) ?v_20)) (or (or P28 P2) ?v_27)) (or (or ?v_21 P25) ?v_60)) (or (or ?v_137 ?v_65) P0)) (or (or ?v_16 ?v_18) ?v_23)) (or (or ?v_24 ?v_73) ?v_72)) (or (or ?v_1 ?v_26) ?v_27)) (or (or ?v_7 ?v_35) ?v_28)) (or (or ?v_4 ?v_29) ?v_101)) (or (or ?v_27 ?v_116) ?v_131)) (or (or ?v_3 ?v_30) ?v_144)) (or (or ?v_147 ?v_31) ?v_141)) (or (or ?v_6 ?v_32) ?v_33)) (or (or ?v_25 ?v_50) ?v_128)) (or (or ?v_35 ?v_36) ?v_122)) (or (or P22 P9) ?v_5)) (or (or ?v_37 ?v_42) ?v_156)) (or (or ?v_53 ?v_31) ?v_38)) (or (or ?v_39 ?v_2) ?v_40)) (or (or ?v_27 ?v_41) ?v_33)) (or (or ?v_42 ?v_40) ?v_43)) (or (or P1 ?v_117) ?v_123)) (or (or ?v_30 ?v_47) ?v_6)) (or (or ?v_46 ?v_9) ?v_47)) (or (or ?v_87 ?v_48) ?v_49)) (or (or ?v_79 P14) ?v_2)) (or (or ?v_88 ?v_0) ?v_42)) (or (or ?v_47 ?v_32) ?v_50)) (or (or ?v_63 ?v_16) ?v_153)) (or (or ?v_38 ?v_9) ?v_97)) (or (or ?v_51 ?v_11) P15)) (or (or ?v_50 ?v_52) ?v_8)) (or (or ?v_53 ?v_56) ?v_125)) (or (or P21 ?v_39) ?v_136)) (or (or ?v_121 ?v_56) ?v_104)) (or (or ?v_57 ?v_29) ?v_146)) (or (or ?v_58 ?v_59) ?v_37)) (or (or ?v_60 ?v_29) ?v_74)) (or (or ?v_23 P23) ?v_61)) (or ?v_106 ?v_62)) (or (or ?v_151 ?v_64) ?v_93)) (or (or ?v_66 P14) ?v_65)) (or (or ?v_132 ?v_68) ?v_26)) (or (or ?v_6 ?v_69) P26)) (or (or P26 ?v_58) ?v_70)) (or (or P1 ?v_71) ?v_52)) (or (or P24 ?v_72) ?v_73)) (or (or ?v_65 ?v_74) ?v_76)) (or (or ?v_34 ?v_75) ?v_18)) (or (or ?v_76 P5) ?v_77)) (or (or ?v_66 ?v_119) ?v_80)) (or (or ?v_58 ?v_42) ?v_78)) (or (or ?v_79 ?v_82) ?v_28)) (or (or P1 ?v_40) ?v_44)) (or (or P21 ?v_80) P19)) (or ?v_149 ?v_82)) (or (or ?v_62 ?v_95) ?v_94)) (or (or ?v_25 ?v_83) ?v_115)) (or (or ?v_84 ?v_71) ?v_30)) (or (or ?v_85 P20) P25)) (or (or ?v_86 ?v_46) ?v_90)) (or (or ?v_88 ?v_92) ?v_87)) (or (or ?v_89 P17) ?v_77)) (or (or ?v_90 ?v_111) P26)) (or (or ?v_4 ?v_64) P0)) (or (or ?v_14 ?v_14) P9)) (or ?v_155 ?v_22)) (or (or P21 ?v_93) ?v_94)) (or (or P17 ?v_95) ?v_14)) (or (or ?v_14 ?v_67) ?v_79)) (or (or P3 ?v_18) ?v_118)) (or (or ?v_6 ?v_5) ?v_92)) (or (or P0 ?v_46) ?v_4)) (or (or ?v_5 ?v_88) P13)) (or (or ?v_73 ?v_127) P25)) (or (or ?v_52 ?v_96) ?v_133)) (or (or P27 ?v_23) ?v_94)) (or (or ?v_0 ?v_74) P16)) (or (or ?v_77 P25) ?v_9)) (or (or ?v_100 ?v_31) ?v_18)) (or (or ?v_97 ?v_55) ?v_58)) (or (or ?v_76 P24) ?v_98)) (or (or ?v_73 P9) ?v_99)) (or (or ?v_25 ?v_34) ?v_97)) (or (or ?v_100 ?v_33) ?v_101)) (or (or P28 ?v_6) P12)) (or (or ?v_102 ?v_103) ?v_3)) (or (or ?v_105 ?v_34) ?v_104)) (or (or ?v_17 ?v_56) ?v_105)) (or ?v_106 P8)) (or (or P17 ?v_86) ?v_135)) (or (or ?v_19 ?v_4) ?v_88)) (or (or ?v_80 ?v_107) ?v_41)) (or (or ?v_129 ?v_108) P16)) (or (or ?v_109 ?v_47) ?v_110)) (or (or ?v_38 ?v_53) ?v_50)) (or (or ?v_158 ?v_140) P26)) (or (or ?v_112 ?v_113) P18)) (or (or ?v_114 ?v_62) ?v_115)) (or (or ?v_34 ?v_44) ?v_40)) (or (or ?v_44 ?v_116) ?v_57)) (or (or ?v_108 ?v_117) P4)) (or (or P6 ?v_19) ?v_29)) (or (or ?v_40 ?v_18) ?v_67)) (or (or ?v_66 ?v_83) ?v_50)) (or (or ?v_66 ?v_86) ?v_44)) (or (or ?v_68 P6) ?v_100)) (or (or ?v_72 ?v_77) ?v_81)) (or (or ?v_19 ?v_37) ?v_97)) (or (or ?v_48 ?v_118) ?v_119)) (or (or ?v_22 ?v_120) ?v_115)) (or (or P20 ?v_120) ?v_47)) (or (or ?v_121 ?v_84) ?v_7)) (or (or ?v_122 ?v_117) ?v_123)) (or (or ?v_124 P22) ?v_74)) (or (or ?v_75 ?v_15) ?v_94)) (or (or ?v_26 P22) ?v_72)) (or (or ?v_122 ?v_125) ?v_126)) (or (or ?v_9 ?v_65) ?v_110)) (or (or ?v_48 P11) ?v_127)) (or (or ?v_67 P3) ?v_35)) (or (or ?v_123 ?v_84) ?v_6)) (or (or ?v_98 ?v_128) ?v_142)) (or (or ?v_9 ?v_102) ?v_4)) (or (or ?v_31 ?v_6) ?v_129)) (or (or ?v_114 ?v_130) ?v_30)) (or (or P8 P2) ?v_103)) (or (or P28 P9) ?v_33)) (or (or ?v_72 ?v_32) ?v_97)) (or (or ?v_76 ?v_131) ?v_19)) (or (or P17 ?v_3) ?v_85)) (or (or P23 ?v_58) ?v_138)) (or (or P28 ?v_131) ?v_74)) (or (or ?v_1 ?v_31) ?v_126)) (or (or P13 ?v_92) ?v_86)) (or (or ?v_129 P18) ?v_131)) (or (or ?v_95 ?v_101) P12)) (or (or ?v_132 ?v_145) P17)) (or (or ?v_77 P9) ?v_124)) (or (or ?v_133 ?v_90) ?v_1)) (or (or ?v_139 ?v_32) ?v_127)) (or (or ?v_95 ?v_128) ?v_108)) (or (or P2 P8) ?v_75)) (or (or ?v_89 P3) ?v_135)) (or (or ?v_127 ?v_116) ?v_136)) (or (or ?v_33 ?v_96) ?v_94)) (or (or ?v_61 ?v_30) ?v_137)) (or (or ?v_138 ?v_103) ?v_93)) (or (or ?v_79 ?v_62) ?v_28)) (or (or ?v_70 P28) ?v_115)) (or (or ?v_48 ?v_128) ?v_131)) (or (or ?v_59 ?v_14) P0)) (or (or ?v_78 ?v_16) ?v_67)) (or (or P4 ?v_77) ?v_44)) (or (or ?v_3 ?v_0) ?v_66)) (or (or P18 ?v_35) ?v_120)) (or (or ?v_6 ?v_27) ?v_83)) (or (or ?v_96 ?v_125) ?v_123)) (or (or ?v_128 P8) ?v_42)) (or (or ?v_126 ?v_81) P11)) (or (or ?v_109 ?v_21) ?v_128)) (or (or ?v_102 ?v_143) ?v_32)) (or (or ?v_139 P16) ?v_129)) (or (or ?v_138 P18) ?v_116)) (or (or ?v_75 ?v_16) P27)) (or (or ?v_22 ?v_4) ?v_35)) (or (or ?v_58 ?v_115) ?v_74)) (or (or ?v_16 ?v_58) ?v_135)) (or (or ?v_43 ?v_108) ?v_140)) (or (or ?v_40 P3) ?v_63)) (or (or P8 ?v_39) ?v_5)) (or ?v_157 ?v_85)) (or (or ?v_77 ?v_56) ?v_109)) (or (or ?v_81 ?v_89) ?v_57)) (or (or ?v_99 ?v_113) ?v_66)) (or (or ?v_22 ?v_85) ?v_103)) (or (or P6 ?v_148) ?v_120)) (or (or P10 P16) ?v_71)) (or (or ?v_13 ?v_74) P18)) (or (or ?v_140 ?v_110) ?v_41)) (or (or ?v_27 ?v_22) P7)) (or (or ?v_110 ?v_142) P4)) (or (or ?v_132 ?v_65) ?v_143)) (or ?v_152 ?v_73)) (or (or ?v_100 ?v_144) ?v_150)) (or (or ?v_136 ?v_122) P12)) (or (or ?v_38 ?v_100) ?v_145)) (or (or ?v_18 P11) ?v_15)) (or (or ?v_67 ?v_9) ?v_146)) (or (or ?v_27 ?v_147) P13)) (or (or P26 ?v_144) P20)) (or (or ?v_148 ?v_20) ?v_68)) (or (or ?v_33 ?v_147) ?v_47)) (or (or ?v_28 ?v_55) ?v_99)) (or (or ?v_96 ?v_93) ?v_75)) (or (or P15 P21) ?v_99)) (or (or ?v_28 ?v_24) ?v_109)) (or (or P20 P23) P25)) (or (or ?v_126 ?v_120) ?v_96)) (or ?v_149 ?v_120)) (or (or ?v_96 P18) ?v_93)) (or (or ?v_108 ?v_80) ?v_140)) (or (or ?v_107 ?v_150) ?v_49)) (or (or ?v_111 ?v_48) ?v_36)) (or (or ?v_95 ?v_38) ?v_102)) (or (or ?v_103 ?v_60) ?v_141)) (or (or ?v_141 ?v_38) ?v_82)) (or (or ?v_10 ?v_89) ?v_28)) (or (or ?v_97 ?v_125) ?v_0)) (or (or ?v_36 ?v_95) ?v_124)) (or (or ?v_89 P21) P14)) (or (or ?v_111 ?v_80) ?v_100)) (or (or ?v_58 ?v_63) ?v_115)) (or (or P0 ?v_93) ?v_18)) (or (or ?v_133 P7) ?v_138)) (or (or ?v_69 ?v_92) ?v_73)) (or (or P25 ?v_121) ?v_15)) (or (or ?v_87 P19) ?v_113)) (or (or ?v_51 P13) ?v_123)) (or (or ?v_43 ?v_48) ?v_128)) (or (or ?v_96 ?v_19) ?v_142)) (or (or ?v_16 ?v_148) ?v_98)) (or (or P21 ?v_17) ?v_150)) (or (or ?v_36 ?v_98) ?v_60)) (or (or ?v_76 ?v_33) P1)) (or (or ?v_38 ?v_141) ?v_11)) (or (or ?v_134 ?v_139) ?v_125)) (or ?v_159 ?v_136)) (or (or ?v_97 ?v_32) ?v_103)) (or (or ?v_8 ?v_116) P12)) (or (or ?v_18 ?v_140) ?v_103)) (or (or ?v_119 ?v_58) ?v_97)) (or (or ?v_90 ?v_50) ?v_144)) (or (or ?v_8 P7) ?v_89)) (or (or ?v_84 ?v_88) ?v_111)) (or (or P27 ?v_93) ?v_25)) (or (or ?v_72 ?v_105) ?v_126)) (or (or ?v_75 ?v_38) ?v_73)) (or (or ?v_108 P27) P22)) (or (or ?v_80 ?v_97) ?v_22)) (or (or ?v_118 P16) ?v_116)) (or (or ?v_14 ?v_139) ?v_76)) (or (or ?v_138 ?v_119) ?v_69)) (or (or ?v_151 ?v_85) ?v_108)) (or (or ?v_76 ?v_144) ?v_26)) (or ?v_152 ?v_89)) (or (or ?v_65 ?v_19) ?v_71)) (or (or ?v_67 ?v_113) ?v_5)) (or (or P3 ?v_145) ?v_46)) (or (or ?v_48 ?v_55) ?v_87)) (or (or P18 P21) ?v_153)) (or (or P1 ?v_57) P2)) (or (or ?v_138 ?v_88) ?v_62)) (or (or ?v_154 ?v_48) ?v_36)) (or (or ?v_71 P8) ?v_41)) (or (or ?v_95 ?v_49) ?v_108)) (or (or ?v_69 ?v_60) ?v_50)) (or (or ?v_28 ?v_66) ?v_97)) (or (or ?v_78 ?v_70) ?v_38)) (or (or ?v_153 ?v_127) ?v_14)) (or (or P19 ?v_80) ?v_44)) (or (or ?v_10 ?v_52) ?v_56)) (or (or ?v_64 ?v_73) ?v_36)) (or (or ?v_72 P26) ?v_77)) (or (or ?v_63 ?v_74) ?v_69)) (or (or ?v_129 ?v_10) ?v_80)) (or (or ?v_124 ?v_69) ?v_119)) (or (or ?v_88 P6) ?v_72)) (or (or ?v_127 ?v_38) ?v_116)) (or (or P6 ?v_11) P27)) (or (or ?v_125 ?v_114) ?v_60)) (or (or ?v_124 P2) ?v_148)) (or (or ?v_83 ?v_141) ?v_34)) (or (or ?v_116 ?v_69) P0)) (or (or P16 ?v_61) P12)) (or (or ?v_110 ?v_123) ?v_56)) (or (or ?v_59 P10) ?v_15)) (or ?v_155 P21)) (or (or ?v_61 ?v_94) ?v_107)) (or (or ?v_19 ?v_81) ?v_78)) (or (or ?v_83 P7) ?v_156)) (or (or ?v_97 P5) ?v_88)) (or (or ?v_31 P3) ?v_150)) (or (or ?v_46 ?v_81) ?v_153)) (or (or ?v_88 ?v_59) ?v_116)) (or (or ?v_74 ?v_105) P17)) (or (or ?v_34 ?v_102) ?v_8)) (or (or ?v_123 ?v_17) ?v_65)) (or ?v_157 ?v_63)) (or (or ?v_34 ?v_22) P29)) (or (or ?v_44 ?v_125) ?v_135)) (or (or ?v_29 ?v_62) ?v_63)) (or (or P28 ?v_139) ?v_22)) (or (or ?v_8 P16) ?v_42)) (or (or ?v_102 P15) P27)) (or (or ?v_90 ?v_127) ?v_121)) (or (or ?v_110 P1) ?v_70)) (or (or P7 ?v_21) ?v_133)) (or (or ?v_2 ?v_20) ?v_62)) (or (or ?v_33 ?v_9) P4)) (or (or ?v_145 ?v_105) ?v_6)) (or (or ?v_77 ?v_34) ?v_29)) (or (or ?v_69 ?v_134) ?v_70)) (or (or ?v_153 P5) ?v_27)) (or (or P0 ?v_76) ?v_56)) (or (or ?v_158 ?v_0) ?v_100)) (or (or ?v_121 ?v_83) ?v_105)) (or (or ?v_11 ?v_80) ?v_26)) (or (or ?v_29 P5) ?v_110)) (or (or ?v_111 ?v_36) ?v_134)) (or (or P18 ?v_16) P10)) (or (or ?v_5 ?v_95) ?v_96)) (or (or ?v_78 ?v_117) ?v_142)) (or (or ?v_80 ?v_28) ?v_78)) (or (or ?v_153 ?v_109) P18)) (or (or ?v_114 ?v_11) ?v_98)) (or (or ?v_17 ?v_72) ?v_132)) (or (or ?v_66 ?v_28) ?v_4)) (or (or ?v_77 ?v_146) ?v_64)) (or (or ?v_55 ?v_121) ?v_132)) (or (or ?v_114 ?v_76) P11)) (or (or ?v_80 ?v_75) ?v_154)) (or ?v_159 ?v_116)) (or (or ?v_116 ?v_124) ?v_97)) (or (or ?v_134 ?v_154) ?v_28)) (or (or ?v_127 ?v_141) P20)) (or (or P13 P12) ?v_18)) (or (or P24 ?v_19) ?v_70)) (or (or ?v_153 ?v_111) ?v_4)) (or (or ?v_126 ?v_116) ?v_44))))))))))))))))))))))))))
(check-sat)
(exit)
